41593
1 0 0 0 0 0 1 1 0 0 1 0 0 0 0 1 1 0 1 0 0 0 0 0 0 1 1 1 1 0 
18 6 16 27 15 25 15 27 18 27 26 28 10 0 28 18 0 10 16 27 18 16 15 0 0 18 27 28 6 15 6 6 28 16 27 6 26 26 16 15 18 26 6 26 10 28 10 16 28 28 0 16 16 16 10 6 18 26 18 7 6 27 7 10 10 25 0 28 6 25 18 25 6 26 0 0 10 0 26 16 0 0 26 25 26 10 6 15 27 7 28 6 25 25 0 10 27 25 0 28 28 15 25 18 6 27 6 27 18 10 6 6 27 6 25 28 18 7 28 26 26 18 28 6 26 16 15 18 26 0 28 16 25 10 15 26 10 10 28 0 25 18 25 25 25 0 16 15 27 25 16 27 0 0 10 18 0 15 10 10 10 27 27 16 10 27 15 26 10 15 15 10 28 28 26 16 27 10 6 10 15 15 16 6 25 26 28 0 0 16 0 16 6 6 7 25 7 15 28 28 
